% File represents an instance of a Composite Structure problem to be solved by a CP framework
% Created on 2025-03-26 10:41:27.121
T = 58;
n = 16;
m = 24;
edges = [(2, 1),
(6, 5),
(10, 9),
(14, 13),
(2, 3),
(6, 7),
(10, 11),
(14, 15),
(4, 3),
(7, 8),
(11, 12),
(15, 16),
(5, 1),
(9, 5),
(9, 13),
(6, 2),
(10, 6),
(10, 14),
(7, 3),
(11, 7),
(11, 15),
(4, 8),
(12, 8),
(12, 16)];
counts = [|4, 22, 4, 18,
|4, 24, 4, 18,
|4, 24, 4, 16,
|4, 24, 4, 18,
|6, 22, 6, 18,
|6, 24, 6, 20,
|6, 24, 6, 16,
|4, 22, 4, 16,
|6, 26, 6, 18,
|6, 26, 6, 20,
|6, 24, 6, 20,
|6, 24, 6, 16,
|6, 22, 6, 18,
|6, 26, 6, 18,
|6, 24, 6, 18,
|6, 22, 6, 14|];
